(set-info :status unknown)
(set-info :source |Alberto Griggio <griggio@fbk.eu>. These benchmarks were used for the evaluation in the following paper: L. Haller, A. Griggio, M. Brain, D. Kroening: Deciding floating-point logic with systematic abstraction. FMCAD 2012.)|)
(set-logic QF_FPBV)
(declare-fun b283 () (_ FloatingPoint 8 24))
(declare-fun b413 () (_ FloatingPoint 8 24))
(declare-fun b900 () (_ FloatingPoint 8 24))
(declare-fun b166 () (_ FloatingPoint 8 24))
(declare-fun b189 () (_ FloatingPoint 8 24))
(declare-fun b296 () (_ FloatingPoint 8 24))
(declare-fun b890 () (_ FloatingPoint 8 24))
(declare-fun b387 () (_ FloatingPoint 8 24))
(declare-fun b910 () (_ FloatingPoint 8 24))
(declare-fun b865 () (_ FloatingPoint 8 24))
(declare-fun b400 () (_ FloatingPoint 8 24))
(declare-fun b930 () (_ FloatingPoint 8 24))
(declare-fun b423 () (_ FloatingPoint 8 24))
(declare-fun b384 () (_ FloatingPoint 8 24))
(declare-fun b965 () (_ FloatingPoint 8 24))
(declare-fun b267 () (_ FloatingPoint 8 24))
(declare-fun b244 () (_ FloatingPoint 8 24))
(declare-fun b205 () (_ FloatingPoint 8 24))
(declare-fun b465 () (_ FloatingPoint 8 24))
(declare-fun b439 () (_ FloatingPoint 8 24))
(declare-fun b970 () (_ FloatingPoint 8 24))
(declare-fun b306 () (_ FloatingPoint 8 24))
(declare-fun b136 () (_ FloatingPoint 8 24))
(declare-fun b436 () (_ FloatingPoint 8 24))
(declare-fun b192 () (_ FloatingPoint 8 24))
(declare-fun b875 () (_ FloatingPoint 8 24))
(declare-fun b345 () (_ FloatingPoint 8 24))
(declare-fun b159 () (_ FloatingPoint 8 24))
(declare-fun b452 () (_ FloatingPoint 8 24))
(declare-fun b426 () (_ FloatingPoint 8 24))
(declare-fun b361 () (_ FloatingPoint 8 24))
(declare-fun b955 () (_ FloatingPoint 8 24))
(declare-fun b335 () (_ FloatingPoint 8 24))
(declare-fun b218 () (_ FloatingPoint 8 24))
(declare-fun b270 () (_ FloatingPoint 8 24))
(declare-fun b241 () (_ FloatingPoint 8 24))
(declare-fun b935 () (_ FloatingPoint 8 24))
(declare-fun b905 () (_ FloatingPoint 8 24))
(declare-fun b148 () (_ FloatingPoint 8 24))
(declare-fun b880 () (_ FloatingPoint 8 24))
(declare-fun b202 () (_ FloatingPoint 8 24))
(declare-fun b397 () (_ FloatingPoint 8 24))
(declare-fun b254 () (_ FloatingPoint 8 24))
(declare-fun b945 () (_ FloatingPoint 8 24))
(declare-fun b950 () (_ FloatingPoint 8 24))
(declare-fun b885 () (_ FloatingPoint 8 24))
(declare-fun b975 () (_ FloatingPoint 8 24))
(declare-fun b410 () (_ FloatingPoint 8 24))
(declare-fun b348 () (_ FloatingPoint 8 24))
(declare-fun b915 () (_ FloatingPoint 8 24))
(declare-fun b309 () (_ FloatingPoint 8 24))
(declare-fun b215 () (_ FloatingPoint 8 24))
(declare-fun b462 () (_ FloatingPoint 8 24))
(declare-fun b860 () (_ FloatingPoint 8 24))
(declare-fun b163 () (_ FloatingPoint 8 24))
(declare-fun b332 () (_ FloatingPoint 8 24))
(declare-fun b371 () (_ FloatingPoint 8 24))
(declare-fun b610 () (_ FloatingPoint 8 24))
(declare-fun b960 () (_ FloatingPoint 8 24))
(declare-fun b870 () (_ FloatingPoint 8 24))
(declare-fun b151 () (_ FloatingPoint 8 24))
(declare-fun b280 () (_ FloatingPoint 8 24))
(declare-fun b293 () (_ FloatingPoint 8 24))
(declare-fun b940 () (_ FloatingPoint 8 24))
(declare-fun b176 () (_ FloatingPoint 8 24))
(declare-fun b449 () (_ FloatingPoint 8 24))
(declare-fun b322 () (_ FloatingPoint 8 24))
(declare-fun b374 () (_ FloatingPoint 8 24))
(declare-fun b179 () (_ FloatingPoint 8 24))
(declare-fun b146 () (_ FloatingPoint 8 24))
(declare-fun b228 () (_ FloatingPoint 8 24))
(declare-fun b319 () (_ FloatingPoint 8 24))
(declare-fun b895 () (_ FloatingPoint 8 24))
(declare-fun b257 () (_ FloatingPoint 8 24))
(declare-fun b231 () (_ FloatingPoint 8 24))
(declare-fun b925 () (_ FloatingPoint 8 24))
(declare-fun b920 () (_ FloatingPoint 8 24))
(declare-fun b134 () (_ FloatingPoint 8 24))
(declare-fun b358 () (_ FloatingPoint 8 24))
(define-fun .3 () RoundingMode roundNearestTiesToEven)
(define-fun .9 () (_ FloatingPoint 8 24) b970)
(define-fun .10 () (_ FloatingPoint 8 24) b975)
(define-fun .11 () Bool (= .9 .10))
(define-fun .12 () Bool (not .11))
(define-fun .13 () (_ FloatingPoint 8 24) b965)
(define-fun .14 () Bool (= .9 .13))
(define-fun .15 () Bool (not .14))
(define-fun .16 () (_ FloatingPoint 8 24) b960)
(define-fun .17 () Bool (= .13 .16))
(define-fun .18 () Bool (not .17))
(define-fun .19 () (_ FloatingPoint 8 24) b955)
(define-fun .20 () Bool (= .16 .19))
(define-fun .21 () Bool (not .20))
(define-fun .22 () (_ FloatingPoint 8 24) b950)
(define-fun .23 () Bool (= .19 .22))
(define-fun .24 () Bool (not .23))
(define-fun .25 () (_ FloatingPoint 8 24) b945)
(define-fun .26 () Bool (= .22 .25))
(define-fun .27 () Bool (not .26))
(define-fun .28 () (_ FloatingPoint 8 24) b940)
(define-fun .29 () Bool (= .25 .28))
(define-fun .30 () Bool (not .29))
(define-fun .31 () (_ FloatingPoint 8 24) b935)
(define-fun .32 () Bool (= .28 .31))
(define-fun .33 () Bool (not .32))
(define-fun .34 () (_ FloatingPoint 8 24) b930)
(define-fun .35 () Bool (= .31 .34))
(define-fun .36 () Bool (not .35))
(define-fun .37 () (_ FloatingPoint 8 24) b925)
(define-fun .38 () Bool (= .34 .37))
(define-fun .39 () Bool (not .38))
(define-fun .40 () (_ FloatingPoint 8 24) b920)
(define-fun .41 () Bool (= .37 .40))
(define-fun .42 () Bool (not .41))
(define-fun .43 () (_ FloatingPoint 8 24) b915)
(define-fun .44 () Bool (= .40 .43))
(define-fun .45 () Bool (not .44))
(define-fun .46 () (_ FloatingPoint 8 24) b910)
(define-fun .47 () Bool (= .43 .46))
(define-fun .48 () Bool (not .47))
(define-fun .49 () (_ FloatingPoint 8 24) b905)
(define-fun .50 () Bool (= .46 .49))
(define-fun .51 () Bool (not .50))
(define-fun .52 () (_ FloatingPoint 8 24) b900)
(define-fun .53 () Bool (= .49 .52))
(define-fun .54 () Bool (not .53))
(define-fun .55 () (_ FloatingPoint 8 24) b895)
(define-fun .56 () Bool (= .52 .55))
(define-fun .57 () Bool (not .56))
(define-fun .58 () (_ FloatingPoint 8 24) b890)
(define-fun .59 () Bool (= .55 .58))
(define-fun .60 () Bool (not .59))
(define-fun .61 () (_ FloatingPoint 8 24) b885)
(define-fun .62 () Bool (= .58 .61))
(define-fun .63 () Bool (not .62))
(define-fun .64 () (_ FloatingPoint 8 24) b880)
(define-fun .65 () Bool (= .61 .64))
(define-fun .66 () Bool (not .65))
(define-fun .67 () (_ FloatingPoint 8 24) b875)
(define-fun .68 () Bool (= .64 .67))
(define-fun .69 () Bool (not .68))
(define-fun .70 () (_ FloatingPoint 8 24) b870)
(define-fun .71 () Bool (= .67 .70))
(define-fun .72 () Bool (not .71))
(define-fun .73 () (_ FloatingPoint 8 24) b865)
(define-fun .74 () Bool (= .70 .73))
(define-fun .75 () Bool (not .74))
(define-fun .76 () (_ FloatingPoint 8 24) b860)
(define-fun .77 () Bool (= .73 .76))
(define-fun .78 () Bool (not .77))
(define-fun .79 () (_ FloatingPoint 8 24) b148)
(define-fun .80 () (_ FloatingPoint 8 24) b465)
(define-fun .81 () (_ FloatingPoint 8 24) (fp.add .3 .79 .80))
(define-fun .82 () (_ FloatingPoint 8 24) b136)
(define-fun .83 () (_ FloatingPoint 8 24) (fp.mul .3 .81 .82))
(define-fun .84 () (_ FloatingPoint 8 24) (fp.mul .3 .83 .83))
(define-fun .85 () (_ FloatingPoint 8 24) b462)
(define-fun .86 () (_ FloatingPoint 8 24) (fp.add .3 .79 .85))
(define-fun .87 () (_ FloatingPoint 8 24) (fp.mul .3 .82 .86))
(define-fun .88 () (_ FloatingPoint 8 24) (fp.mul .3 .87 .87))
(define-fun .89 () (_ FloatingPoint 8 24) (fp.add .3 .84 .88))
(define-fun .90 () Bool (= .76 .89))
(define-fun .91 () Bool (not .90))
(define-fun .92 () (_ FloatingPoint 8 24) b452)
(define-fun .93 () (_ FloatingPoint 8 24) (fp.add .3 .79 .92))
(define-fun .94 () (_ FloatingPoint 8 24) (fp.mul .3 .82 .93))
(define-fun .95 () (_ FloatingPoint 8 24) (fp.mul .3 .94 .94))
(define-fun .96 () (_ FloatingPoint 8 24) b449)
(define-fun .97 () (_ FloatingPoint 8 24) (fp.add .3 .79 .96))
(define-fun .98 () (_ FloatingPoint 8 24) (fp.mul .3 .82 .97))
(define-fun .99 () (_ FloatingPoint 8 24) (fp.mul .3 .98 .98))
(define-fun .100 () (_ FloatingPoint 8 24) (fp.add .3 .95 .99))
(define-fun .101 () (_ FloatingPoint 8 24) b159)
(define-fun .102 () Bool (fp.lt .101 .100))
(define-fun .103 () Bool (not .102))
(define-fun .104 () Bool (= .76 .100))
(define-fun .105 () Bool (and .103 .104))
(define-fun .106 () (_ FloatingPoint 8 24) b610)
(define-fun .107 () (_ FloatingPoint 8 24) (fp.div .3 .106 .10))
(define-fun .108 () (_ FloatingPoint 8 24) b134)
(define-fun .109 () Bool (fp.leq .108 .107))
(define-fun .110 () Bool (not .109))
(define-fun .111 () Bool (and .105 .110))
(define-fun .112 () Bool (and .91 .111))
(define-fun .113 () (_ FloatingPoint 8 24) b439)
(define-fun .114 () (_ FloatingPoint 8 24) (fp.add .3 .79 .113))
(define-fun .115 () (_ FloatingPoint 8 24) (fp.mul .3 .82 .114))
(define-fun .116 () (_ FloatingPoint 8 24) (fp.mul .3 .115 .115))
(define-fun .117 () (_ FloatingPoint 8 24) b436)
(define-fun .118 () (_ FloatingPoint 8 24) (fp.add .3 .79 .117))
(define-fun .119 () (_ FloatingPoint 8 24) (fp.mul .3 .82 .118))
(define-fun .120 () (_ FloatingPoint 8 24) (fp.mul .3 .119 .119))
(define-fun .121 () (_ FloatingPoint 8 24) (fp.add .3 .116 .120))
(define-fun .122 () Bool (fp.lt .101 .121))
(define-fun .123 () Bool (not .122))
(define-fun .124 () Bool (and .112 .123))
(define-fun .125 () Bool (= .73 .121))
(define-fun .126 () Bool (and .124 .125))
(define-fun .127 () Bool (and .78 .126))
(define-fun .128 () (_ FloatingPoint 8 24) b426)
(define-fun .129 () (_ FloatingPoint 8 24) (fp.add .3 .79 .128))
(define-fun .130 () (_ FloatingPoint 8 24) (fp.mul .3 .82 .129))
(define-fun .131 () (_ FloatingPoint 8 24) (fp.mul .3 .130 .130))
(define-fun .132 () (_ FloatingPoint 8 24) b423)
(define-fun .133 () (_ FloatingPoint 8 24) (fp.add .3 .79 .132))
(define-fun .134 () (_ FloatingPoint 8 24) (fp.mul .3 .82 .133))
(define-fun .135 () (_ FloatingPoint 8 24) (fp.mul .3 .134 .134))
(define-fun .136 () (_ FloatingPoint 8 24) (fp.add .3 .131 .135))
(define-fun .137 () Bool (fp.lt .101 .136))
(define-fun .138 () Bool (not .137))
(define-fun .139 () Bool (and .127 .138))
(define-fun .140 () Bool (= .70 .136))
(define-fun .141 () Bool (and .139 .140))
(define-fun .142 () Bool (and .75 .141))
(define-fun .143 () (_ FloatingPoint 8 24) b413)
(define-fun .144 () (_ FloatingPoint 8 24) (fp.add .3 .79 .143))
(define-fun .145 () (_ FloatingPoint 8 24) (fp.mul .3 .82 .144))
(define-fun .146 () (_ FloatingPoint 8 24) (fp.mul .3 .145 .145))
(define-fun .147 () (_ FloatingPoint 8 24) b410)
(define-fun .148 () (_ FloatingPoint 8 24) (fp.add .3 .79 .147))
(define-fun .149 () (_ FloatingPoint 8 24) (fp.mul .3 .82 .148))
(define-fun .150 () (_ FloatingPoint 8 24) (fp.mul .3 .149 .149))
(define-fun .151 () (_ FloatingPoint 8 24) (fp.add .3 .146 .150))
(define-fun .152 () Bool (fp.lt .101 .151))
(define-fun .153 () Bool (not .152))
(define-fun .154 () Bool (and .142 .153))
(define-fun .155 () Bool (= .67 .151))
(define-fun .156 () Bool (and .154 .155))
(define-fun .157 () Bool (and .72 .156))
(define-fun .158 () (_ FloatingPoint 8 24) b400)
(define-fun .159 () (_ FloatingPoint 8 24) (fp.add .3 .79 .158))
(define-fun .160 () (_ FloatingPoint 8 24) (fp.mul .3 .82 .159))
(define-fun .161 () (_ FloatingPoint 8 24) (fp.mul .3 .160 .160))
(define-fun .162 () (_ FloatingPoint 8 24) b397)
(define-fun .163 () (_ FloatingPoint 8 24) (fp.add .3 .79 .162))
(define-fun .164 () (_ FloatingPoint 8 24) (fp.mul .3 .82 .163))
(define-fun .165 () (_ FloatingPoint 8 24) (fp.mul .3 .164 .164))
(define-fun .166 () (_ FloatingPoint 8 24) (fp.add .3 .161 .165))
(define-fun .167 () Bool (fp.lt .101 .166))
(define-fun .168 () Bool (not .167))
(define-fun .169 () Bool (and .157 .168))
(define-fun .170 () Bool (= .64 .166))
(define-fun .171 () Bool (and .169 .170))
(define-fun .172 () Bool (and .69 .171))
(define-fun .173 () (_ FloatingPoint 8 24) b387)
(define-fun .174 () (_ FloatingPoint 8 24) (fp.add .3 .79 .173))
(define-fun .175 () (_ FloatingPoint 8 24) (fp.mul .3 .82 .174))
(define-fun .176 () (_ FloatingPoint 8 24) (fp.mul .3 .175 .175))
(define-fun .177 () (_ FloatingPoint 8 24) b384)
(define-fun .178 () (_ FloatingPoint 8 24) (fp.add .3 .79 .177))
(define-fun .179 () (_ FloatingPoint 8 24) (fp.mul .3 .82 .178))
(define-fun .180 () (_ FloatingPoint 8 24) (fp.mul .3 .179 .179))
(define-fun .181 () (_ FloatingPoint 8 24) (fp.add .3 .176 .180))
(define-fun .182 () Bool (fp.lt .101 .181))
(define-fun .183 () Bool (not .182))
(define-fun .184 () Bool (and .172 .183))
(define-fun .185 () Bool (= .61 .181))
(define-fun .186 () Bool (and .184 .185))
(define-fun .187 () Bool (and .66 .186))
(define-fun .188 () (_ FloatingPoint 8 24) b374)
(define-fun .189 () (_ FloatingPoint 8 24) (fp.add .3 .79 .188))
(define-fun .190 () (_ FloatingPoint 8 24) (fp.mul .3 .82 .189))
(define-fun .191 () (_ FloatingPoint 8 24) (fp.mul .3 .190 .190))
(define-fun .192 () (_ FloatingPoint 8 24) b371)
(define-fun .193 () (_ FloatingPoint 8 24) (fp.add .3 .79 .192))
(define-fun .194 () (_ FloatingPoint 8 24) (fp.mul .3 .82 .193))
(define-fun .195 () (_ FloatingPoint 8 24) (fp.mul .3 .194 .194))
(define-fun .196 () (_ FloatingPoint 8 24) (fp.add .3 .191 .195))
(define-fun .197 () Bool (fp.lt .101 .196))
(define-fun .198 () Bool (not .197))
(define-fun .199 () Bool (and .187 .198))
(define-fun .200 () Bool (= .58 .196))
(define-fun .201 () Bool (and .199 .200))
(define-fun .202 () Bool (and .63 .201))
(define-fun .203 () (_ FloatingPoint 8 24) b361)
(define-fun .204 () (_ FloatingPoint 8 24) (fp.add .3 .79 .203))
(define-fun .205 () (_ FloatingPoint 8 24) (fp.mul .3 .82 .204))
(define-fun .206 () (_ FloatingPoint 8 24) (fp.mul .3 .205 .205))
(define-fun .207 () (_ FloatingPoint 8 24) b358)
(define-fun .208 () (_ FloatingPoint 8 24) (fp.add .3 .79 .207))
(define-fun .209 () (_ FloatingPoint 8 24) (fp.mul .3 .82 .208))
(define-fun .210 () (_ FloatingPoint 8 24) (fp.mul .3 .209 .209))
(define-fun .211 () (_ FloatingPoint 8 24) (fp.add .3 .206 .210))
(define-fun .212 () Bool (fp.lt .101 .211))
(define-fun .213 () Bool (not .212))
(define-fun .214 () Bool (and .202 .213))
(define-fun .215 () Bool (= .55 .211))
(define-fun .216 () Bool (and .214 .215))
(define-fun .217 () Bool (and .60 .216))
(define-fun .218 () (_ FloatingPoint 8 24) b348)
(define-fun .219 () (_ FloatingPoint 8 24) (fp.add .3 .79 .218))
(define-fun .220 () (_ FloatingPoint 8 24) (fp.mul .3 .82 .219))
(define-fun .221 () (_ FloatingPoint 8 24) (fp.mul .3 .220 .220))
(define-fun .222 () (_ FloatingPoint 8 24) b345)
(define-fun .223 () (_ FloatingPoint 8 24) (fp.add .3 .79 .222))
(define-fun .224 () (_ FloatingPoint 8 24) (fp.mul .3 .82 .223))
(define-fun .225 () (_ FloatingPoint 8 24) (fp.mul .3 .224 .224))
(define-fun .226 () (_ FloatingPoint 8 24) (fp.add .3 .221 .225))
(define-fun .227 () Bool (fp.lt .101 .226))
(define-fun .228 () Bool (not .227))
(define-fun .229 () Bool (and .217 .228))
(define-fun .230 () Bool (= .52 .226))
(define-fun .231 () Bool (and .229 .230))
(define-fun .232 () Bool (and .57 .231))
(define-fun .233 () (_ FloatingPoint 8 24) b335)
(define-fun .234 () (_ FloatingPoint 8 24) (fp.add .3 .79 .233))
(define-fun .235 () (_ FloatingPoint 8 24) (fp.mul .3 .82 .234))
(define-fun .236 () (_ FloatingPoint 8 24) (fp.mul .3 .235 .235))
(define-fun .237 () (_ FloatingPoint 8 24) b332)
(define-fun .238 () (_ FloatingPoint 8 24) (fp.add .3 .79 .237))
(define-fun .239 () (_ FloatingPoint 8 24) (fp.mul .3 .82 .238))
(define-fun .240 () (_ FloatingPoint 8 24) (fp.mul .3 .239 .239))
(define-fun .241 () (_ FloatingPoint 8 24) (fp.add .3 .236 .240))
(define-fun .242 () Bool (fp.lt .101 .241))
(define-fun .243 () Bool (not .242))
(define-fun .244 () Bool (and .232 .243))
(define-fun .245 () Bool (= .49 .241))
(define-fun .246 () Bool (and .244 .245))
(define-fun .247 () Bool (and .54 .246))
(define-fun .248 () (_ FloatingPoint 8 24) b322)
(define-fun .249 () (_ FloatingPoint 8 24) (fp.add .3 .79 .248))
(define-fun .250 () (_ FloatingPoint 8 24) (fp.mul .3 .82 .249))
(define-fun .251 () (_ FloatingPoint 8 24) (fp.mul .3 .250 .250))
(define-fun .252 () (_ FloatingPoint 8 24) b319)
(define-fun .253 () (_ FloatingPoint 8 24) (fp.add .3 .79 .252))
(define-fun .254 () (_ FloatingPoint 8 24) (fp.mul .3 .82 .253))
(define-fun .255 () (_ FloatingPoint 8 24) (fp.mul .3 .254 .254))
(define-fun .256 () (_ FloatingPoint 8 24) (fp.add .3 .251 .255))
(define-fun .257 () Bool (fp.lt .101 .256))
(define-fun .258 () Bool (not .257))
(define-fun .259 () Bool (and .247 .258))
(define-fun .260 () Bool (= .46 .256))
(define-fun .261 () Bool (and .259 .260))
(define-fun .262 () Bool (and .51 .261))
(define-fun .263 () (_ FloatingPoint 8 24) b309)
(define-fun .264 () (_ FloatingPoint 8 24) (fp.add .3 .79 .263))
(define-fun .265 () (_ FloatingPoint 8 24) (fp.mul .3 .82 .264))
(define-fun .266 () (_ FloatingPoint 8 24) (fp.mul .3 .265 .265))
(define-fun .267 () (_ FloatingPoint 8 24) b306)
(define-fun .268 () (_ FloatingPoint 8 24) (fp.add .3 .79 .267))
(define-fun .269 () (_ FloatingPoint 8 24) (fp.mul .3 .82 .268))
(define-fun .270 () (_ FloatingPoint 8 24) (fp.mul .3 .269 .269))
(define-fun .271 () (_ FloatingPoint 8 24) (fp.add .3 .266 .270))
(define-fun .272 () Bool (fp.lt .101 .271))
(define-fun .273 () Bool (not .272))
(define-fun .274 () Bool (and .262 .273))
(define-fun .275 () Bool (= .43 .271))
(define-fun .276 () Bool (and .274 .275))
(define-fun .277 () Bool (and .48 .276))
(define-fun .278 () (_ FloatingPoint 8 24) b296)
(define-fun .279 () (_ FloatingPoint 8 24) (fp.add .3 .79 .278))
(define-fun .280 () (_ FloatingPoint 8 24) (fp.mul .3 .82 .279))
(define-fun .281 () (_ FloatingPoint 8 24) (fp.mul .3 .280 .280))
(define-fun .282 () (_ FloatingPoint 8 24) b293)
(define-fun .283 () (_ FloatingPoint 8 24) (fp.add .3 .79 .282))
(define-fun .284 () (_ FloatingPoint 8 24) (fp.mul .3 .82 .283))
(define-fun .285 () (_ FloatingPoint 8 24) (fp.mul .3 .284 .284))
(define-fun .286 () (_ FloatingPoint 8 24) (fp.add .3 .281 .285))
(define-fun .287 () Bool (fp.lt .101 .286))
(define-fun .288 () Bool (not .287))
(define-fun .289 () Bool (and .277 .288))
(define-fun .290 () Bool (= .40 .286))
(define-fun .291 () Bool (and .289 .290))
(define-fun .292 () Bool (and .45 .291))
(define-fun .293 () (_ FloatingPoint 8 24) b283)
(define-fun .294 () (_ FloatingPoint 8 24) (fp.add .3 .79 .293))
(define-fun .295 () (_ FloatingPoint 8 24) (fp.mul .3 .82 .294))
(define-fun .296 () (_ FloatingPoint 8 24) (fp.mul .3 .295 .295))
(define-fun .297 () (_ FloatingPoint 8 24) b280)
(define-fun .298 () (_ FloatingPoint 8 24) (fp.add .3 .79 .297))
(define-fun .299 () (_ FloatingPoint 8 24) (fp.mul .3 .82 .298))
(define-fun .300 () (_ FloatingPoint 8 24) (fp.mul .3 .299 .299))
(define-fun .301 () (_ FloatingPoint 8 24) (fp.add .3 .296 .300))
(define-fun .302 () Bool (fp.lt .101 .301))
(define-fun .303 () Bool (not .302))
(define-fun .304 () Bool (and .292 .303))
(define-fun .305 () Bool (= .37 .301))
(define-fun .306 () Bool (and .304 .305))
(define-fun .307 () Bool (and .42 .306))
(define-fun .308 () (_ FloatingPoint 8 24) b270)
(define-fun .309 () (_ FloatingPoint 8 24) (fp.add .3 .79 .308))
(define-fun .310 () (_ FloatingPoint 8 24) (fp.mul .3 .82 .309))
(define-fun .311 () (_ FloatingPoint 8 24) (fp.mul .3 .310 .310))
(define-fun .312 () (_ FloatingPoint 8 24) b267)
(define-fun .313 () (_ FloatingPoint 8 24) (fp.add .3 .79 .312))
(define-fun .314 () (_ FloatingPoint 8 24) (fp.mul .3 .82 .313))
(define-fun .315 () (_ FloatingPoint 8 24) (fp.mul .3 .314 .314))
(define-fun .316 () (_ FloatingPoint 8 24) (fp.add .3 .311 .315))
(define-fun .317 () Bool (fp.lt .101 .316))
(define-fun .318 () Bool (not .317))
(define-fun .319 () Bool (and .307 .318))
(define-fun .320 () Bool (= .34 .316))
(define-fun .321 () Bool (and .319 .320))
(define-fun .322 () Bool (and .39 .321))
(define-fun .323 () (_ FloatingPoint 8 24) b257)
(define-fun .324 () (_ FloatingPoint 8 24) (fp.add .3 .79 .323))
(define-fun .325 () (_ FloatingPoint 8 24) (fp.mul .3 .82 .324))
(define-fun .326 () (_ FloatingPoint 8 24) (fp.mul .3 .325 .325))
(define-fun .327 () (_ FloatingPoint 8 24) b254)
(define-fun .328 () (_ FloatingPoint 8 24) (fp.add .3 .79 .327))
(define-fun .329 () (_ FloatingPoint 8 24) (fp.mul .3 .82 .328))
(define-fun .330 () (_ FloatingPoint 8 24) (fp.mul .3 .329 .329))
(define-fun .331 () (_ FloatingPoint 8 24) (fp.add .3 .326 .330))
(define-fun .332 () Bool (fp.lt .101 .331))
(define-fun .333 () Bool (not .332))
(define-fun .334 () Bool (and .322 .333))
(define-fun .335 () Bool (= .31 .331))
(define-fun .336 () Bool (and .334 .335))
(define-fun .337 () Bool (and .36 .336))
(define-fun .338 () (_ FloatingPoint 8 24) b244)
(define-fun .339 () (_ FloatingPoint 8 24) (fp.add .3 .79 .338))
(define-fun .340 () (_ FloatingPoint 8 24) (fp.mul .3 .82 .339))
(define-fun .341 () (_ FloatingPoint 8 24) (fp.mul .3 .340 .340))
(define-fun .342 () (_ FloatingPoint 8 24) b241)
(define-fun .343 () (_ FloatingPoint 8 24) (fp.add .3 .79 .342))
(define-fun .344 () (_ FloatingPoint 8 24) (fp.mul .3 .82 .343))
(define-fun .345 () (_ FloatingPoint 8 24) (fp.mul .3 .344 .344))
(define-fun .346 () (_ FloatingPoint 8 24) (fp.add .3 .341 .345))
(define-fun .347 () Bool (fp.lt .101 .346))
(define-fun .348 () Bool (not .347))
(define-fun .349 () Bool (and .337 .348))
(define-fun .350 () Bool (= .28 .346))
(define-fun .351 () Bool (and .349 .350))
(define-fun .352 () Bool (and .33 .351))
(define-fun .353 () (_ FloatingPoint 8 24) b231)
(define-fun .354 () (_ FloatingPoint 8 24) (fp.add .3 .79 .353))
(define-fun .355 () (_ FloatingPoint 8 24) (fp.mul .3 .82 .354))
(define-fun .356 () (_ FloatingPoint 8 24) (fp.mul .3 .355 .355))
(define-fun .357 () (_ FloatingPoint 8 24) b228)
(define-fun .358 () (_ FloatingPoint 8 24) (fp.add .3 .79 .357))
(define-fun .359 () (_ FloatingPoint 8 24) (fp.mul .3 .82 .358))
(define-fun .360 () (_ FloatingPoint 8 24) (fp.mul .3 .359 .359))
(define-fun .361 () (_ FloatingPoint 8 24) (fp.add .3 .356 .360))
(define-fun .362 () Bool (fp.lt .101 .361))
(define-fun .363 () Bool (not .362))
(define-fun .364 () Bool (and .352 .363))
(define-fun .365 () Bool (= .25 .361))
(define-fun .366 () Bool (and .364 .365))
(define-fun .367 () Bool (and .30 .366))
(define-fun .368 () (_ FloatingPoint 8 24) b218)
(define-fun .369 () (_ FloatingPoint 8 24) (fp.add .3 .79 .368))
(define-fun .370 () (_ FloatingPoint 8 24) (fp.mul .3 .82 .369))
(define-fun .371 () (_ FloatingPoint 8 24) (fp.mul .3 .370 .370))
(define-fun .372 () (_ FloatingPoint 8 24) b215)
(define-fun .373 () (_ FloatingPoint 8 24) (fp.add .3 .79 .372))
(define-fun .374 () (_ FloatingPoint 8 24) (fp.mul .3 .82 .373))
(define-fun .375 () (_ FloatingPoint 8 24) (fp.mul .3 .374 .374))
(define-fun .376 () (_ FloatingPoint 8 24) (fp.add .3 .371 .375))
(define-fun .377 () Bool (fp.lt .101 .376))
(define-fun .378 () Bool (not .377))
(define-fun .379 () Bool (and .367 .378))
(define-fun .380 () Bool (= .22 .376))
(define-fun .381 () Bool (and .379 .380))
(define-fun .382 () Bool (and .27 .381))
(define-fun .383 () (_ FloatingPoint 8 24) b205)
(define-fun .384 () (_ FloatingPoint 8 24) (fp.add .3 .79 .383))
(define-fun .385 () (_ FloatingPoint 8 24) (fp.mul .3 .82 .384))
(define-fun .386 () (_ FloatingPoint 8 24) (fp.mul .3 .385 .385))
(define-fun .387 () (_ FloatingPoint 8 24) b202)
(define-fun .388 () (_ FloatingPoint 8 24) (fp.add .3 .79 .387))
(define-fun .389 () (_ FloatingPoint 8 24) (fp.mul .3 .82 .388))
(define-fun .390 () (_ FloatingPoint 8 24) (fp.mul .3 .389 .389))
(define-fun .391 () (_ FloatingPoint 8 24) (fp.add .3 .386 .390))
(define-fun .392 () Bool (fp.lt .101 .391))
(define-fun .393 () Bool (not .392))
(define-fun .394 () Bool (and .382 .393))
(define-fun .395 () Bool (= .19 .391))
(define-fun .396 () Bool (and .394 .395))
(define-fun .397 () Bool (and .24 .396))
(define-fun .398 () (_ FloatingPoint 8 24) b192)
(define-fun .399 () (_ FloatingPoint 8 24) (fp.add .3 .79 .398))
(define-fun .400 () (_ FloatingPoint 8 24) (fp.mul .3 .82 .399))
(define-fun .401 () (_ FloatingPoint 8 24) (fp.mul .3 .400 .400))
(define-fun .402 () (_ FloatingPoint 8 24) b189)
(define-fun .403 () (_ FloatingPoint 8 24) (fp.add .3 .79 .402))
(define-fun .404 () (_ FloatingPoint 8 24) (fp.mul .3 .82 .403))
(define-fun .405 () (_ FloatingPoint 8 24) (fp.mul .3 .404 .404))
(define-fun .406 () (_ FloatingPoint 8 24) (fp.add .3 .401 .405))
(define-fun .407 () Bool (fp.lt .101 .406))
(define-fun .408 () Bool (not .407))
(define-fun .409 () Bool (and .397 .408))
(define-fun .410 () Bool (= .16 .406))
(define-fun .411 () Bool (and .409 .410))
(define-fun .412 () Bool (and .21 .411))
(define-fun .413 () (_ FloatingPoint 8 24) b179)
(define-fun .414 () (_ FloatingPoint 8 24) (fp.add .3 .79 .413))
(define-fun .415 () (_ FloatingPoint 8 24) (fp.mul .3 .82 .414))
(define-fun .416 () (_ FloatingPoint 8 24) (fp.mul .3 .415 .415))
(define-fun .417 () (_ FloatingPoint 8 24) b176)
(define-fun .418 () (_ FloatingPoint 8 24) (fp.add .3 .79 .417))
(define-fun .419 () (_ FloatingPoint 8 24) (fp.mul .3 .82 .418))
(define-fun .420 () (_ FloatingPoint 8 24) (fp.mul .3 .419 .419))
(define-fun .421 () (_ FloatingPoint 8 24) (fp.add .3 .416 .420))
(define-fun .422 () Bool (fp.lt .101 .421))
(define-fun .423 () Bool (not .422))
(define-fun .424 () Bool (and .412 .423))
(define-fun .425 () Bool (= .13 .421))
(define-fun .426 () Bool (and .424 .425))
(define-fun .427 () Bool (and .18 .426))
(define-fun .428 () (_ FloatingPoint 8 24) b166)
(define-fun .429 () (_ FloatingPoint 8 24) (fp.add .3 .79 .428))
(define-fun .430 () (_ FloatingPoint 8 24) (fp.mul .3 .82 .429))
(define-fun .431 () (_ FloatingPoint 8 24) (fp.mul .3 .430 .430))
(define-fun .432 () (_ FloatingPoint 8 24) b163)
(define-fun .433 () (_ FloatingPoint 8 24) (fp.add .3 .79 .432))
(define-fun .434 () (_ FloatingPoint 8 24) (fp.mul .3 .82 .433))
(define-fun .435 () (_ FloatingPoint 8 24) (fp.mul .3 .434 .434))
(define-fun .436 () (_ FloatingPoint 8 24) (fp.add .3 .431 .435))
(define-fun .437 () Bool (fp.lt .101 .436))
(define-fun .438 () Bool (not .437))
(define-fun .439 () Bool (and .427 .438))
(define-fun .440 () Bool (= .9 .436))
(define-fun .441 () Bool (and .439 .440))
(define-fun .442 () Bool (and .15 .441))
(define-fun .443 () (_ FloatingPoint 8 24) b151)
(define-fun .444 () (_ FloatingPoint 8 24) (fp.add .3 .79 .443))
(define-fun .445 () (_ FloatingPoint 8 24) (fp.mul .3 .82 .444))
(define-fun .446 () (_ FloatingPoint 8 24) (fp.mul .3 .445 .445))
(define-fun .447 () (_ FloatingPoint 8 24) b146)
(define-fun .448 () (_ FloatingPoint 8 24) (fp.add .3 .79 .447))
(define-fun .449 () (_ FloatingPoint 8 24) (fp.mul .3 .82 .448))
(define-fun .450 () (_ FloatingPoint 8 24) (fp.mul .3 .449 .449))
(define-fun .451 () (_ FloatingPoint 8 24) (fp.add .3 .446 .450))
(define-fun .452 () Bool (fp.lt .101 .451))
(define-fun .453 () Bool (not .452))
(define-fun .454 () Bool (and .442 .453))
(define-fun .455 () Bool (= .10 .451))
(define-fun .456 () Bool (and .454 .455))
(define-fun .457 () Bool (and .12 .456))
(define-fun .458 () Bool (fp.lt .101 .89))
(define-fun .459 () Bool (not .458))
(define-fun .460 () Bool (and .457 .459))
(assert .460)
(check-sat)
